db/inputs/1826921798229571074712015261001376321124.smt2
(set-logic QF_FP)
(declare-const x0 (_ FloatingPoint 8 24))
(declare-const x1 (_ FloatingPoint 8 24))
(declare-const x2 (_ FloatingPoint 8 24))
(declare-const x3 (_ FloatingPoint 8 24))
(declare-const x4 (_ FloatingPoint 8 24))
(declare-const x5 (_ FloatingPoint 8 24))
(declare-const x6 (_ FloatingPoint 8 24))
(declare-const x7 (_ FloatingPoint 8 24))
(declare-const x8 (_ FloatingPoint 8 24))
(assert (fp.lt (fp.div RNE x3 x8) (fp.div RNE x7 x1)))
(assert (fp.gt (fp.sub RNE x2 x7) (fp.mul RNE x7 x7)))
(assert (fp.geq (fp.div RNE x8 x5) (fp.neg x2)))
(assert (fp.leq (fp.sub RNE x6 x8) (fp.div RNE x5 x8)))
(assert (fp.leq (fp.add RNE x8 x7) (fp.sub RNE x1 x5)))
(assert (fp.leq (fp.add RNE x3 x4) (fp.add RNE x6 x5)))
(assert (fp.lt (fp.sub RNE x1 x5) (fp.mul RNE x4 x3)))
(assert (fp.leq (fp.div RNE x8 x1) (fp.sub RNE x2 x5)))
(check-sat)
