db/data/1826921798229571074712015261001376321124.z3.out
sat
-------------------
29.868897982
